param set_len = 20;
param target_sum = 30351927;
param values := [0] 2463973 [1] 6616496 [2] 7066714 [3] 3473433 [4] 2352296 [5] 1727325 [6] 3320360 [7] 1760730 [8] 8058406 [9] 4199927 [10] 54694 [11] 1206751 [12] 2996113 [13] 170132 [14] 3213780 [15] 4531713 [16] 4735417 [17] 1537517 [18] 7434265 [19] 6565544 ;
